(set-info :original "/tmp/sea-uJoB_R/ludcmp_false-unreach-call.pp.ms.o.bc")
(set-info :authors "SeaHorn v.0.1.0-rc3")
(declare-rel verifier.error (Bool Bool Bool ))
(declare-rel main@entry ((Array Int Int) ))
(declare-rel main@_bb (Int (Array Int Int) Int ))
(declare-rel main@precall.split ())
(declare-var main@%_73_0 Bool )
(declare-var main@%.lcssa_1 Bool )
(declare-var main@%_58_0 Int )
(declare-var main@%_46_0 Int )
(declare-var main@%_34_0 Int )
(declare-var main@%_22_0 Int )
(declare-var main@%_9_0 Int )
(declare-var main@%shadow.mem.1_2 (Array Int Int) )
(declare-var main@%.ph_1 Int )
(declare-var main@%shadow.mem.2_2 (Array Int Int) )
(declare-var main@%.ph4_2 Bool )
(declare-var main@%.ph5_1 Int )
(declare-var main@%shadow.mem.3_2 (Array Int Int) )
(declare-var main@%.ph8_1 Int )
(declare-var main@%.ph9_2 Bool )
(declare-var main@%shadow.mem.4_2 (Array Int Int) )
(declare-var main@%.ph12_1 Int )
(declare-var main@%.ph13_2 Bool )
(declare-var main@%_63_0 Int )
(declare-var main@%_66_0 Bool )
(declare-var main@%shadow.mem.5_3 (Array Int Int) )
(declare-var main@%_70_2 Int )
(declare-var main@%_71_3 Bool )
(declare-var main@%_51_0 Int )
(declare-var main@%_54_0 Bool )
(declare-var main@%_39_0 Int )
(declare-var main@%_42_0 Bool )
(declare-var main@%_27_0 Int )
(declare-var main@%_30_0 Bool )
(declare-var main@%_14_0 Int )
(declare-var main@%_17_0 Bool )
(declare-var main@%_2_0 Bool )
(declare-var main@%_3_0 Int )
(declare-var main@%_5_0 Int )
(declare-var main@%_6_0 Bool )
(declare-var main@%_0_0 (Array Int Int) )
(declare-var main@entry_0 Bool )
(declare-var @a_0 Int )
(declare-var main@_bb_0 Bool )
(declare-var main@%shadow.mem.0_0 (Array Int Int) )
(declare-var main@%i.0.i_0 Int )
(declare-var main@%shadow.mem.0_1 (Array Int Int) )
(declare-var main@%i.0.i_1 Int )
(declare-var main@_bb1_0 Bool )
(declare-var main@%_13_0 (Array Int Int) )
(declare-var main@%_16_0 Int )
(declare-var main@_bb3_0 Bool )
(declare-var main@%_26_0 (Array Int Int) )
(declare-var main@%_29_0 Int )
(declare-var main@_bb5_0 Bool )
(declare-var main@%_38_0 (Array Int Int) )
(declare-var main@%_41_0 Int )
(declare-var main@_bb7_0 Bool )
(declare-var main@%_50_0 (Array Int Int) )
(declare-var main@%_53_0 Int )
(declare-var main@_bb9_0 Bool )
(declare-var main@%_62_0 (Array Int Int) )
(declare-var main@%_65_0 Int )
(declare-var main@_bb10_0 Bool )
(declare-var main@_bb8_0 Bool )
(declare-var main@_bb6_0 Bool )
(declare-var main@_bb4_0 Bool )
(declare-var main@_bb2_0 Bool )
(declare-var main@.thread_0 Bool )
(declare-var main@%_8_0 (Array Int Int) )
(declare-var main@%_11_0 Int )
(declare-var main@.thread2_0 Bool )
(declare-var main@%shadow.mem.1_0 (Array Int Int) )
(declare-var main@%.ph_0 Int )
(declare-var main@%shadow.mem.1_1 (Array Int Int) )
(declare-var main@%.ph_2 Int )
(declare-var main@%_21_0 (Array Int Int) )
(declare-var main@%_24_0 Int )
(declare-var main@.thread6_0 Bool )
(declare-var main@%shadow.mem.2_0 (Array Int Int) )
(declare-var main@%.ph4_0 Bool )
(declare-var main@%.ph5_0 Int )
(declare-var main@%shadow.mem.2_1 (Array Int Int) )
(declare-var main@%.ph4_1 Bool )
(declare-var main@%.ph5_2 Int )
(declare-var main@%_33_0 (Array Int Int) )
(declare-var main@%_36_0 Int )
(declare-var main@.thread10_0 Bool )
(declare-var main@%shadow.mem.3_0 (Array Int Int) )
(declare-var main@%.ph8_0 Int )
(declare-var main@%.ph9_0 Bool )
(declare-var main@%shadow.mem.3_1 (Array Int Int) )
(declare-var main@%.ph9_1 Bool )
(declare-var main@%.ph8_2 Int )
(declare-var main@%_45_0 (Array Int Int) )
(declare-var main@%_48_0 Int )
(declare-var main@.thread14_0 Bool )
(declare-var main@%shadow.mem.4_0 (Array Int Int) )
(declare-var main@%.ph12_0 Int )
(declare-var main@%.ph13_0 Bool )
(declare-var main@%shadow.mem.4_1 (Array Int Int) )
(declare-var main@%.ph13_1 Bool )
(declare-var main@%.ph12_2 Int )
(declare-var main@%_57_0 (Array Int Int) )
(declare-var main@%_60_0 Int )
(declare-var main@_bb11_0 Bool )
(declare-var |tuple(main@_bb9_0, main@_bb11_0)| Bool )
(declare-var main@%shadow.mem.5_0 (Array Int Int) )
(declare-var main@%_70_0 Int )
(declare-var main@%_71_0 Bool )
(declare-var main@%shadow.mem.5_1 (Array Int Int) )
(declare-var main@%_70_1 Int )
(declare-var main@%_71_1 Bool )
(declare-var main@%shadow.mem.5_2 (Array Int Int) )
(declare-var main@%_71_2 Bool )
(declare-var main@%_70_3 Int )
(declare-var main@%_72_0 (Array Int Int) )
(declare-var main@%_74_0 Bool )
(declare-var main@postcall_0 Bool )
(declare-var main@%_18_0 Int )
(declare-var main@_bb_1 Bool )
(declare-var main@%shadow.mem.0_2 (Array Int Int) )
(declare-var main@%i.0.i_2 Int )
(declare-var main@precall_0 Bool )
(declare-var main@%.lcssa_0 Bool )
(declare-var main@precall.split_0 Bool )
(rule (verifier.error false false false))
(rule (verifier.error false true true))
(rule (verifier.error true false true))
(rule (verifier.error true true true))
(rule (main@entry main@%_0_0))
(rule (=> (and (main@entry main@%_0_0)
         true
         (=> main@_bb_0 (and main@_bb_0 main@entry_0))
         main@_bb_0
         (=> (and main@_bb_0 main@entry_0) (= main@%shadow.mem.0_0 main@%_0_0))
         (=> (and main@_bb_0 main@entry_0) (= main@%i.0.i_0 0))
         (=> (and main@_bb_0 main@entry_0)
             (= main@%shadow.mem.0_1 main@%shadow.mem.0_0))
         (=> (and main@_bb_0 main@entry_0) (= main@%i.0.i_1 main@%i.0.i_0)))
    (main@_bb main@%i.0.i_1 main@%shadow.mem.0_1 @a_0)))
(rule (let ((a!1 (= main@%_5_0 (+ (+ @a_0 (* 0 20000) (* main@%i.0.i_0 400)) (* 0 8))))
      (a!2 (+ (+ @a_0 (* 0 20000) (* main@%i.0.i_0 400)) (* 1 8)))
      (a!3 (+ (+ @a_0 (* 0 20000) (* main@%i.0.i_0 400)) (* 2 8)))
      (a!4 (+ (+ @a_0 (* 0 20000) (* main@%i.0.i_0 400)) (* 3 8)))
      (a!5 (+ (+ @a_0 (* 0 20000) (* main@%i.0.i_0 400)) (* 4 8)))
      (a!6 (+ (+ @a_0 (* 0 20000) (* main@%i.0.i_0 400)) (* 5 8))))
(let ((a!7 (and (main@_bb main@%i.0.i_0 main@%shadow.mem.0_0 @a_0)
                true
                (= main@%_2_0 (< main@%i.0.i_0 6))
                main@%_2_0
                (= main@%_3_0 (+ main@%i.0.i_0 2))
                a!1
                (or (<= @a_0 0) (> main@%_5_0 0))
                (= main@%_6_0 (= main@%i.0.i_0 0))
                (=> main@_bb1_0 (and main@_bb1_0 main@_bb_0))
                (=> (and main@_bb1_0 main@_bb_0) (not main@%_6_0))
                (=> main@_bb1_0 (> @a_0 0))
                (=> main@_bb1_0 (= main@%_14_0 (+ main@%i.0.i_0 3)))
                (=> main@_bb1_0 (= main@%_16_0 a!2))
                (=> main@_bb1_0 (or (<= @a_0 0) (> main@%_16_0 0)))
                (=> main@_bb1_0 (= main@%_17_0 (= main@%i.0.i_0 1)))
                (=> main@_bb3_0 (and main@_bb3_0 main@_bb1_0))
                (=> (and main@_bb3_0 main@_bb1_0) (not main@%_17_0))
                (=> main@_bb3_0 (> @a_0 0))
                (=> main@_bb3_0 (= main@%_27_0 (+ main@%i.0.i_0 4)))
                (=> main@_bb3_0 (= main@%_29_0 a!3))
                (=> main@_bb3_0 (or (<= @a_0 0) (> main@%_29_0 0)))
                (=> main@_bb3_0 (= main@%_30_0 (= main@%i.0.i_0 2)))
                (=> main@_bb5_0 (and main@_bb5_0 main@_bb3_0))
                (=> (and main@_bb5_0 main@_bb3_0) (not main@%_30_0))
                (=> main@_bb5_0 (> @a_0 0))
                (=> main@_bb5_0 (= main@%_39_0 (+ main@%i.0.i_0 5)))
                (=> main@_bb5_0 (= main@%_41_0 a!4))
                (=> main@_bb5_0 (or (<= @a_0 0) (> main@%_41_0 0)))
                (=> main@_bb5_0 (= main@%_42_0 (= main@%i.0.i_0 3)))
                (=> main@_bb7_0 (and main@_bb7_0 main@_bb5_0))
                (=> (and main@_bb7_0 main@_bb5_0) (not main@%_42_0))
                (=> main@_bb7_0 (> @a_0 0))
                (=> main@_bb7_0 (= main@%_51_0 (+ main@%i.0.i_0 6)))
                (=> main@_bb7_0 (= main@%_53_0 a!5))
                (=> main@_bb7_0 (or (<= @a_0 0) (> main@%_53_0 0)))
                (=> main@_bb7_0 (= main@%_54_0 (= main@%i.0.i_0 4)))
                (=> main@_bb9_0 (and main@_bb9_0 main@_bb7_0))
                (=> (and main@_bb9_0 main@_bb7_0) (not main@%_54_0))
                (=> main@_bb9_0 (> @a_0 0))
                (=> main@_bb9_0 (= main@%_63_0 (+ main@%i.0.i_0 7)))
                (=> main@_bb9_0 (= main@%_65_0 a!6))
                (=> main@_bb9_0 (or (<= @a_0 0) (> main@%_65_0 0)))
                (=> main@_bb9_0 (= main@%_66_0 (= main@%i.0.i_0 5)))
                (=> main@_bb10_0 (and main@_bb10_0 main@_bb9_0))
                (=> (and main@_bb10_0 main@_bb9_0) main@%_66_0)
                (=> main@_bb8_0 (and main@_bb8_0 main@_bb7_0))
                (=> (and main@_bb8_0 main@_bb7_0) main@%_54_0)
                (=> main@_bb6_0 (and main@_bb6_0 main@_bb5_0))
                (=> (and main@_bb6_0 main@_bb5_0) main@%_42_0)
                (=> main@_bb4_0 (and main@_bb4_0 main@_bb3_0))
                (=> (and main@_bb4_0 main@_bb3_0) main@%_30_0)
                (=> main@_bb2_0 (and main@_bb2_0 main@_bb1_0))
                (=> (and main@_bb2_0 main@_bb1_0) main@%_17_0)
                (=> main@.thread_0 (and main@.thread_0 main@_bb_0))
                (=> (and main@.thread_0 main@_bb_0) main@%_6_0)
                (=> main@.thread_0 (> @a_0 0))
                (=> main@.thread_0 (= main@%_9_0 (+ main@%i.0.i_0 3)))
                (=> main@.thread_0 (= main@%_11_0 a!2))
                (=> main@.thread_0 (or (<= @a_0 0) (> main@%_11_0 0)))
                (=> main@.thread2_0
                    (or (and main@.thread2_0 main@_bb2_0)
                        (and main@.thread2_0 main@.thread_0)))
                (=> (and main@.thread2_0 main@_bb2_0)
                    (= main@%shadow.mem.1_0 main@%_13_0))
                (=> (and main@.thread2_0 main@_bb2_0)
                    (= main@%.ph_0 main@%_16_0))
                (=> (and main@.thread2_0 main@.thread_0)
                    (= main@%shadow.mem.1_1 main@%_8_0))
                (=> (and main@.thread2_0 main@.thread_0)
                    (= main@%.ph_1 main@%_11_0))
                (=> (and main@.thread2_0 main@_bb2_0)
                    (= main@%shadow.mem.1_2 main@%shadow.mem.1_0))
                (=> (and main@.thread2_0 main@_bb2_0)
                    (= main@%.ph_2 main@%.ph_0))
                (=> (and main@.thread2_0 main@.thread_0)
                    (= main@%shadow.mem.1_2 main@%shadow.mem.1_1))
                (=> (and main@.thread2_0 main@.thread_0)
                    (= main@%.ph_2 main@%.ph_1))
                (=> main@.thread2_0 (= main@%_22_0 (+ main@%i.0.i_0 4)))
                (=> main@.thread2_0 (= main@%_24_0 a!3))
                (=> main@.thread2_0 (or (<= @a_0 0) (> main@%_24_0 0)))
                (=> main@.thread6_0
                    (or (and main@.thread6_0 main@_bb4_0)
                        (and main@.thread6_0 main@.thread2_0)))
                (=> (and main@.thread6_0 main@_bb4_0)
                    (= main@%shadow.mem.2_0 main@%_26_0))
                (=> (and main@.thread6_0 main@_bb4_0) (= main@%.ph4_0 true))
                (=> (and main@.thread6_0 main@_bb4_0)
                    (= main@%.ph5_0 main@%_29_0))
                (=> (and main@.thread6_0 main@.thread2_0)
                    (= main@%shadow.mem.2_1 main@%_21_0))
                (=> (and main@.thread6_0 main@.thread2_0)
                    (= main@%.ph4_1 false))
                (=> (and main@.thread6_0 main@.thread2_0)
                    (= main@%.ph5_1 main@%_24_0))
                (=> (and main@.thread6_0 main@_bb4_0)
                    (= main@%shadow.mem.2_2 main@%shadow.mem.2_0))
                (=> (and main@.thread6_0 main@_bb4_0)
                    (= main@%.ph4_2 main@%.ph4_0))
                (=> (and main@.thread6_0 main@_bb4_0)
                    (= main@%.ph5_2 main@%.ph5_0))
                (=> (and main@.thread6_0 main@.thread2_0)
                    (= main@%shadow.mem.2_2 main@%shadow.mem.2_1))
                (=> (and main@.thread6_0 main@.thread2_0)
                    (= main@%.ph4_2 main@%.ph4_1))
                (=> (and main@.thread6_0 main@.thread2_0)
                    (= main@%.ph5_2 main@%.ph5_1))
                (=> main@.thread6_0 (= main@%_34_0 (+ main@%i.0.i_0 5)))
                (=> main@.thread6_0 (= main@%_36_0 a!4))
                (=> main@.thread6_0 (or (<= @a_0 0) (> main@%_36_0 0)))
                (=> main@.thread10_0
                    (or (and main@.thread10_0 main@_bb6_0)
                        (and main@.thread10_0 main@.thread6_0)))
                (=> (and main@.thread10_0 main@_bb6_0)
                    (= main@%shadow.mem.3_0 main@%_38_0))
                (=> (and main@.thread10_0 main@_bb6_0)
                    (= main@%.ph8_0 main@%_41_0))
                (=> (and main@.thread10_0 main@_bb6_0) (= main@%.ph9_0 false))
                (=> (and main@.thread10_0 main@.thread6_0)
                    (= main@%shadow.mem.3_1 main@%_33_0))
                (=> (and main@.thread10_0 main@.thread6_0)
                    (= main@%.ph8_1 main@%_36_0))
                (=> (and main@.thread10_0 main@.thread6_0)
                    (= main@%.ph9_1 main@%.ph4_2))
                (=> (and main@.thread10_0 main@_bb6_0)
                    (= main@%shadow.mem.3_2 main@%shadow.mem.3_0))
                (=> (and main@.thread10_0 main@_bb6_0)
                    (= main@%.ph8_2 main@%.ph8_0))
                (=> (and main@.thread10_0 main@_bb6_0)
                    (= main@%.ph9_2 main@%.ph9_0))
                (=> (and main@.thread10_0 main@.thread6_0)
                    (= main@%shadow.mem.3_2 main@%shadow.mem.3_1))
                (=> (and main@.thread10_0 main@.thread6_0)
                    (= main@%.ph8_2 main@%.ph8_1))
                (=> (and main@.thread10_0 main@.thread6_0)
                    (= main@%.ph9_2 main@%.ph9_1))
                (=> main@.thread10_0 (= main@%_46_0 (+ main@%i.0.i_0 6)))
                (=> main@.thread10_0 (= main@%_48_0 a!5))
                (=> main@.thread10_0 (or (<= @a_0 0) (> main@%_48_0 0)))
                (=> main@.thread14_0
                    (or (and main@.thread14_0 main@_bb8_0)
                        (and main@.thread14_0 main@.thread10_0)))
                (=> (and main@.thread14_0 main@_bb8_0)
                    (= main@%shadow.mem.4_0 main@%_50_0))
                (=> (and main@.thread14_0 main@_bb8_0)
                    (= main@%.ph12_0 main@%_53_0))
                (=> (and main@.thread14_0 main@_bb8_0) (= main@%.ph13_0 false))
                (=> (and main@.thread14_0 main@.thread10_0)
                    (= main@%shadow.mem.4_1 main@%_45_0))
                (=> (and main@.thread14_0 main@.thread10_0)
                    (= main@%.ph12_1 main@%_48_0))
                (=> (and main@.thread14_0 main@.thread10_0)
                    (= main@%.ph13_1 main@%.ph9_2))
                (=> (and main@.thread14_0 main@_bb8_0)
                    (= main@%shadow.mem.4_2 main@%shadow.mem.4_0))
                (=> (and main@.thread14_0 main@_bb8_0)
                    (= main@%.ph12_2 main@%.ph12_0))
                (=> (and main@.thread14_0 main@_bb8_0)
                    (= main@%.ph13_2 main@%.ph13_0))
                (=> (and main@.thread14_0 main@.thread10_0)
                    (= main@%shadow.mem.4_2 main@%shadow.mem.4_1))
                (=> (and main@.thread14_0 main@.thread10_0)
                    (= main@%.ph12_2 main@%.ph12_1))
                (=> (and main@.thread14_0 main@.thread10_0)
                    (= main@%.ph13_2 main@%.ph13_1))
                (=> main@.thread14_0 (= main@%_58_0 (+ main@%i.0.i_0 7)))
                (=> main@.thread14_0 (= main@%_60_0 a!6))
                (=> main@.thread14_0 (or (<= @a_0 0) (> main@%_60_0 0)))
                (=> |tuple(main@_bb9_0, main@_bb11_0)| main@_bb9_0)
                (=> main@_bb11_0
                    (or (and main@_bb11_0 main@_bb10_0)
                        (and main@_bb9_0 |tuple(main@_bb9_0, main@_bb11_0)|)
                        (and main@_bb11_0 main@.thread14_0)))
                (=> (and main@_bb11_0 main@_bb10_0)
                    (= main@%shadow.mem.5_0 main@%_62_0))
                (=> (and main@_bb11_0 main@_bb10_0) (= main@%_70_0 main@%_65_0))
                (=> (and main@_bb11_0 main@_bb10_0) (= main@%_71_0 false))
                (=> (and main@_bb9_0 |tuple(main@_bb9_0, main@_bb11_0)|)
                    (not main@%_66_0))
                (=> (and main@_bb9_0 |tuple(main@_bb9_0, main@_bb11_0)|)
                    (= main@%shadow.mem.5_1 main@%_62_0))
                (=> (and main@_bb9_0 |tuple(main@_bb9_0, main@_bb11_0)|)
                    (= main@%_70_1 main@%_65_0))
                (=> (and main@_bb9_0 |tuple(main@_bb9_0, main@_bb11_0)|)
                    (= main@%_71_1 false))
                (=> (and main@_bb11_0 main@.thread14_0)
                    (= main@%shadow.mem.5_2 main@%_57_0))
                (=> (and main@_bb11_0 main@.thread14_0)
                    (= main@%_70_2 main@%_60_0))
                (=> (and main@_bb11_0 main@.thread14_0)
                    (= main@%_71_2 main@%.ph13_2))
                (=> (and main@_bb11_0 main@_bb10_0)
                    (= main@%shadow.mem.5_3 main@%shadow.mem.5_0))
                (=> (and main@_bb11_0 main@_bb10_0) (= main@%_70_3 main@%_70_0))
                (=> (and main@_bb11_0 main@_bb10_0) (= main@%_71_3 main@%_71_0))
                (=> (and main@_bb9_0 |tuple(main@_bb9_0, main@_bb11_0)|)
                    (= main@%shadow.mem.5_3 main@%shadow.mem.5_1))
                (=> (and main@_bb9_0 |tuple(main@_bb9_0, main@_bb11_0)|)
                    (= main@%_70_3 main@%_70_1))
                (=> (and main@_bb9_0 |tuple(main@_bb9_0, main@_bb11_0)|)
                    (= main@%_71_3 main@%_71_1))
                (=> (and main@_bb11_0 main@.thread14_0)
                    (= main@%shadow.mem.5_3 main@%shadow.mem.5_2))
                (=> (and main@_bb11_0 main@.thread14_0)
                    (= main@%_70_3 main@%_70_2))
                (=> (and main@_bb11_0 main@.thread14_0)
                    (= main@%_71_3 main@%_71_2))
                (=> main@_bb11_0 (= main@%_74_0 (= main@%_71_3 false)))
                (=> main@postcall_0 (and main@postcall_0 main@_bb11_0))
                (=> (and main@postcall_0 main@_bb11_0) main@%_73_0)
                (=> main@postcall_0 (not main@%_74_0))
                (=> main@postcall_0 (= main@%_18_0 (+ main@%i.0.i_0 1)))
                (=> main@_bb_1 (and main@_bb_1 main@postcall_0))
                main@_bb_1
                (=> (and main@_bb_1 main@postcall_0)
                    (= main@%shadow.mem.0_1 main@%_72_0))
                (=> (and main@_bb_1 main@postcall_0)
                    (= main@%i.0.i_1 main@%_18_0))
                (=> (and main@_bb_1 main@postcall_0)
                    (= main@%shadow.mem.0_2 main@%shadow.mem.0_1))
                (=> (and main@_bb_1 main@postcall_0)
                    (= main@%i.0.i_2 main@%i.0.i_1)))))
  (=> a!7 (main@_bb main@%i.0.i_2 main@%shadow.mem.0_2 @a_0)))))
(rule (let ((a!1 (= main@%_5_0 (+ (+ @a_0 (* 0 20000) (* main@%i.0.i_0 400)) (* 0 8))))
      (a!2 (+ (+ @a_0 (* 0 20000) (* main@%i.0.i_0 400)) (* 1 8)))
      (a!3 (+ (+ @a_0 (* 0 20000) (* main@%i.0.i_0 400)) (* 2 8)))
      (a!4 (+ (+ @a_0 (* 0 20000) (* main@%i.0.i_0 400)) (* 3 8)))
      (a!5 (+ (+ @a_0 (* 0 20000) (* main@%i.0.i_0 400)) (* 4 8)))
      (a!6 (+ (+ @a_0 (* 0 20000) (* main@%i.0.i_0 400)) (* 5 8))))
(let ((a!7 (and (main@_bb main@%i.0.i_0 main@%shadow.mem.0_0 @a_0)
                true
                (= main@%_2_0 (< main@%i.0.i_0 6))
                main@%_2_0
                (= main@%_3_0 (+ main@%i.0.i_0 2))
                a!1
                (or (<= @a_0 0) (> main@%_5_0 0))
                (= main@%_6_0 (= main@%i.0.i_0 0))
                (=> main@_bb1_0 (and main@_bb1_0 main@_bb_0))
                (=> (and main@_bb1_0 main@_bb_0) (not main@%_6_0))
                (=> main@_bb1_0 (> @a_0 0))
                (=> main@_bb1_0 (= main@%_14_0 (+ main@%i.0.i_0 3)))
                (=> main@_bb1_0 (= main@%_16_0 a!2))
                (=> main@_bb1_0 (or (<= @a_0 0) (> main@%_16_0 0)))
                (=> main@_bb1_0 (= main@%_17_0 (= main@%i.0.i_0 1)))
                (=> main@_bb3_0 (and main@_bb3_0 main@_bb1_0))
                (=> (and main@_bb3_0 main@_bb1_0) (not main@%_17_0))
                (=> main@_bb3_0 (> @a_0 0))
                (=> main@_bb3_0 (= main@%_27_0 (+ main@%i.0.i_0 4)))
                (=> main@_bb3_0 (= main@%_29_0 a!3))
                (=> main@_bb3_0 (or (<= @a_0 0) (> main@%_29_0 0)))
                (=> main@_bb3_0 (= main@%_30_0 (= main@%i.0.i_0 2)))
                (=> main@_bb5_0 (and main@_bb5_0 main@_bb3_0))
                (=> (and main@_bb5_0 main@_bb3_0) (not main@%_30_0))
                (=> main@_bb5_0 (> @a_0 0))
                (=> main@_bb5_0 (= main@%_39_0 (+ main@%i.0.i_0 5)))
                (=> main@_bb5_0 (= main@%_41_0 a!4))
                (=> main@_bb5_0 (or (<= @a_0 0) (> main@%_41_0 0)))
                (=> main@_bb5_0 (= main@%_42_0 (= main@%i.0.i_0 3)))
                (=> main@_bb7_0 (and main@_bb7_0 main@_bb5_0))
                (=> (and main@_bb7_0 main@_bb5_0) (not main@%_42_0))
                (=> main@_bb7_0 (> @a_0 0))
                (=> main@_bb7_0 (= main@%_51_0 (+ main@%i.0.i_0 6)))
                (=> main@_bb7_0 (= main@%_53_0 a!5))
                (=> main@_bb7_0 (or (<= @a_0 0) (> main@%_53_0 0)))
                (=> main@_bb7_0 (= main@%_54_0 (= main@%i.0.i_0 4)))
                (=> main@_bb9_0 (and main@_bb9_0 main@_bb7_0))
                (=> (and main@_bb9_0 main@_bb7_0) (not main@%_54_0))
                (=> main@_bb9_0 (> @a_0 0))
                (=> main@_bb9_0 (= main@%_63_0 (+ main@%i.0.i_0 7)))
                (=> main@_bb9_0 (= main@%_65_0 a!6))
                (=> main@_bb9_0 (or (<= @a_0 0) (> main@%_65_0 0)))
                (=> main@_bb9_0 (= main@%_66_0 (= main@%i.0.i_0 5)))
                (=> main@_bb10_0 (and main@_bb10_0 main@_bb9_0))
                (=> (and main@_bb10_0 main@_bb9_0) main@%_66_0)
                (=> main@_bb8_0 (and main@_bb8_0 main@_bb7_0))
                (=> (and main@_bb8_0 main@_bb7_0) main@%_54_0)
                (=> main@_bb6_0 (and main@_bb6_0 main@_bb5_0))
                (=> (and main@_bb6_0 main@_bb5_0) main@%_42_0)
                (=> main@_bb4_0 (and main@_bb4_0 main@_bb3_0))
                (=> (and main@_bb4_0 main@_bb3_0) main@%_30_0)
                (=> main@_bb2_0 (and main@_bb2_0 main@_bb1_0))
                (=> (and main@_bb2_0 main@_bb1_0) main@%_17_0)
                (=> main@.thread_0 (and main@.thread_0 main@_bb_0))
                (=> (and main@.thread_0 main@_bb_0) main@%_6_0)
                (=> main@.thread_0 (> @a_0 0))
                (=> main@.thread_0 (= main@%_9_0 (+ main@%i.0.i_0 3)))
                (=> main@.thread_0 (= main@%_11_0 a!2))
                (=> main@.thread_0 (or (<= @a_0 0) (> main@%_11_0 0)))
                (=> main@.thread2_0
                    (or (and main@.thread2_0 main@_bb2_0)
                        (and main@.thread2_0 main@.thread_0)))
                (=> (and main@.thread2_0 main@_bb2_0)
                    (= main@%shadow.mem.1_0 main@%_13_0))
                (=> (and main@.thread2_0 main@_bb2_0)
                    (= main@%.ph_0 main@%_16_0))
                (=> (and main@.thread2_0 main@.thread_0)
                    (= main@%shadow.mem.1_1 main@%_8_0))
                (=> (and main@.thread2_0 main@.thread_0)
                    (= main@%.ph_1 main@%_11_0))
                (=> (and main@.thread2_0 main@_bb2_0)
                    (= main@%shadow.mem.1_2 main@%shadow.mem.1_0))
                (=> (and main@.thread2_0 main@_bb2_0)
                    (= main@%.ph_2 main@%.ph_0))
                (=> (and main@.thread2_0 main@.thread_0)
                    (= main@%shadow.mem.1_2 main@%shadow.mem.1_1))
                (=> (and main@.thread2_0 main@.thread_0)
                    (= main@%.ph_2 main@%.ph_1))
                (=> main@.thread2_0 (= main@%_22_0 (+ main@%i.0.i_0 4)))
                (=> main@.thread2_0 (= main@%_24_0 a!3))
                (=> main@.thread2_0 (or (<= @a_0 0) (> main@%_24_0 0)))
                (=> main@.thread6_0
                    (or (and main@.thread6_0 main@_bb4_0)
                        (and main@.thread6_0 main@.thread2_0)))
                (=> (and main@.thread6_0 main@_bb4_0)
                    (= main@%shadow.mem.2_0 main@%_26_0))
                (=> (and main@.thread6_0 main@_bb4_0) (= main@%.ph4_0 true))
                (=> (and main@.thread6_0 main@_bb4_0)
                    (= main@%.ph5_0 main@%_29_0))
                (=> (and main@.thread6_0 main@.thread2_0)
                    (= main@%shadow.mem.2_1 main@%_21_0))
                (=> (and main@.thread6_0 main@.thread2_0)
                    (= main@%.ph4_1 false))
                (=> (and main@.thread6_0 main@.thread2_0)
                    (= main@%.ph5_1 main@%_24_0))
                (=> (and main@.thread6_0 main@_bb4_0)
                    (= main@%shadow.mem.2_2 main@%shadow.mem.2_0))
                (=> (and main@.thread6_0 main@_bb4_0)
                    (= main@%.ph4_2 main@%.ph4_0))
                (=> (and main@.thread6_0 main@_bb4_0)
                    (= main@%.ph5_2 main@%.ph5_0))
                (=> (and main@.thread6_0 main@.thread2_0)
                    (= main@%shadow.mem.2_2 main@%shadow.mem.2_1))
                (=> (and main@.thread6_0 main@.thread2_0)
                    (= main@%.ph4_2 main@%.ph4_1))
                (=> (and main@.thread6_0 main@.thread2_0)
                    (= main@%.ph5_2 main@%.ph5_1))
                (=> main@.thread6_0 (= main@%_34_0 (+ main@%i.0.i_0 5)))
                (=> main@.thread6_0 (= main@%_36_0 a!4))
                (=> main@.thread6_0 (or (<= @a_0 0) (> main@%_36_0 0)))
                (=> main@.thread10_0
                    (or (and main@.thread10_0 main@_bb6_0)
                        (and main@.thread10_0 main@.thread6_0)))
                (=> (and main@.thread10_0 main@_bb6_0)
                    (= main@%shadow.mem.3_0 main@%_38_0))
                (=> (and main@.thread10_0 main@_bb6_0)
                    (= main@%.ph8_0 main@%_41_0))
                (=> (and main@.thread10_0 main@_bb6_0) (= main@%.ph9_0 false))
                (=> (and main@.thread10_0 main@.thread6_0)
                    (= main@%shadow.mem.3_1 main@%_33_0))
                (=> (and main@.thread10_0 main@.thread6_0)
                    (= main@%.ph8_1 main@%_36_0))
                (=> (and main@.thread10_0 main@.thread6_0)
                    (= main@%.ph9_1 main@%.ph4_2))
                (=> (and main@.thread10_0 main@_bb6_0)
                    (= main@%shadow.mem.3_2 main@%shadow.mem.3_0))
                (=> (and main@.thread10_0 main@_bb6_0)
                    (= main@%.ph8_2 main@%.ph8_0))
                (=> (and main@.thread10_0 main@_bb6_0)
                    (= main@%.ph9_2 main@%.ph9_0))
                (=> (and main@.thread10_0 main@.thread6_0)
                    (= main@%shadow.mem.3_2 main@%shadow.mem.3_1))
                (=> (and main@.thread10_0 main@.thread6_0)
                    (= main@%.ph8_2 main@%.ph8_1))
                (=> (and main@.thread10_0 main@.thread6_0)
                    (= main@%.ph9_2 main@%.ph9_1))
                (=> main@.thread10_0 (= main@%_46_0 (+ main@%i.0.i_0 6)))
                (=> main@.thread10_0 (= main@%_48_0 a!5))
                (=> main@.thread10_0 (or (<= @a_0 0) (> main@%_48_0 0)))
                (=> main@.thread14_0
                    (or (and main@.thread14_0 main@_bb8_0)
                        (and main@.thread14_0 main@.thread10_0)))
                (=> (and main@.thread14_0 main@_bb8_0)
                    (= main@%shadow.mem.4_0 main@%_50_0))
                (=> (and main@.thread14_0 main@_bb8_0)
                    (= main@%.ph12_0 main@%_53_0))
                (=> (and main@.thread14_0 main@_bb8_0) (= main@%.ph13_0 false))
                (=> (and main@.thread14_0 main@.thread10_0)
                    (= main@%shadow.mem.4_1 main@%_45_0))
                (=> (and main@.thread14_0 main@.thread10_0)
                    (= main@%.ph12_1 main@%_48_0))
                (=> (and main@.thread14_0 main@.thread10_0)
                    (= main@%.ph13_1 main@%.ph9_2))
                (=> (and main@.thread14_0 main@_bb8_0)
                    (= main@%shadow.mem.4_2 main@%shadow.mem.4_0))
                (=> (and main@.thread14_0 main@_bb8_0)
                    (= main@%.ph12_2 main@%.ph12_0))
                (=> (and main@.thread14_0 main@_bb8_0)
                    (= main@%.ph13_2 main@%.ph13_0))
                (=> (and main@.thread14_0 main@.thread10_0)
                    (= main@%shadow.mem.4_2 main@%shadow.mem.4_1))
                (=> (and main@.thread14_0 main@.thread10_0)
                    (= main@%.ph12_2 main@%.ph12_1))
                (=> (and main@.thread14_0 main@.thread10_0)
                    (= main@%.ph13_2 main@%.ph13_1))
                (=> main@.thread14_0 (= main@%_58_0 (+ main@%i.0.i_0 7)))
                (=> main@.thread14_0 (= main@%_60_0 a!6))
                (=> main@.thread14_0 (or (<= @a_0 0) (> main@%_60_0 0)))
                (=> |tuple(main@_bb9_0, main@_bb11_0)| main@_bb9_0)
                (=> main@_bb11_0
                    (or (and main@_bb11_0 main@_bb10_0)
                        (and main@_bb9_0 |tuple(main@_bb9_0, main@_bb11_0)|)
                        (and main@_bb11_0 main@.thread14_0)))
                (=> (and main@_bb11_0 main@_bb10_0)
                    (= main@%shadow.mem.5_0 main@%_62_0))
                (=> (and main@_bb11_0 main@_bb10_0) (= main@%_70_0 main@%_65_0))
                (=> (and main@_bb11_0 main@_bb10_0) (= main@%_71_0 false))
                (=> (and main@_bb9_0 |tuple(main@_bb9_0, main@_bb11_0)|)
                    (not main@%_66_0))
                (=> (and main@_bb9_0 |tuple(main@_bb9_0, main@_bb11_0)|)
                    (= main@%shadow.mem.5_1 main@%_62_0))
                (=> (and main@_bb9_0 |tuple(main@_bb9_0, main@_bb11_0)|)
                    (= main@%_70_1 main@%_65_0))
                (=> (and main@_bb9_0 |tuple(main@_bb9_0, main@_bb11_0)|)
                    (= main@%_71_1 false))
                (=> (and main@_bb11_0 main@.thread14_0)
                    (= main@%shadow.mem.5_2 main@%_57_0))
                (=> (and main@_bb11_0 main@.thread14_0)
                    (= main@%_70_2 main@%_60_0))
                (=> (and main@_bb11_0 main@.thread14_0)
                    (= main@%_71_2 main@%.ph13_2))
                (=> (and main@_bb11_0 main@_bb10_0)
                    (= main@%shadow.mem.5_3 main@%shadow.mem.5_0))
                (=> (and main@_bb11_0 main@_bb10_0) (= main@%_70_3 main@%_70_0))
                (=> (and main@_bb11_0 main@_bb10_0) (= main@%_71_3 main@%_71_0))
                (=> (and main@_bb9_0 |tuple(main@_bb9_0, main@_bb11_0)|)
                    (= main@%shadow.mem.5_3 main@%shadow.mem.5_1))
                (=> (and main@_bb9_0 |tuple(main@_bb9_0, main@_bb11_0)|)
                    (= main@%_70_3 main@%_70_1))
                (=> (and main@_bb9_0 |tuple(main@_bb9_0, main@_bb11_0)|)
                    (= main@%_71_3 main@%_71_1))
                (=> (and main@_bb11_0 main@.thread14_0)
                    (= main@%shadow.mem.5_3 main@%shadow.mem.5_2))
                (=> (and main@_bb11_0 main@.thread14_0)
                    (= main@%_70_3 main@%_70_2))
                (=> (and main@_bb11_0 main@.thread14_0)
                    (= main@%_71_3 main@%_71_2))
                (=> main@_bb11_0 (= main@%_74_0 (= main@%_71_3 false)))
                (=> main@precall_0 (and main@precall_0 main@_bb11_0))
                (=> (and main@precall_0 main@_bb11_0) (not main@%_73_0))
                (=> (and main@precall_0 main@_bb11_0)
                    (= main@%.lcssa_0 main@%_74_0))
                (=> (and main@precall_0 main@_bb11_0)
                    (= main@%.lcssa_1 main@%.lcssa_0))
                (=> main@precall_0 main@%.lcssa_1)
                (=> main@precall.split_0
                    (and main@precall.split_0 main@precall_0))
                main@precall.split_0)))
  (=> a!7 main@precall.split))))
(query main@precall.split)

